# Solution for model probrema
# Objective value = 2.3882750263051689e+06
supply_0_tranship_104 623
supply_0_tranship_135 199
supply_1_tranship_158 381
supply_2_tranship_112 144
supply_3_tranship_119 936
supply_4_tranship_121 633
supply_5_tranship_119 789
supply_6_tranship_102 395
supply_6_tranship_119 14
supply_7_tranship_141 930
supply_8_tranship_166 620
supply_9_tranship_162 451
supply_9_tranship_174 12
supply_10_tranship_135 666
supply_10_tranship_172 83
supply_11_tranship_113 74
supply_11_tranship_119 437
supply_11_tranship_160 469
supply_12_tranship_130 194
supply_13_tranship_180 277
supply_13_tranship_183 13
supply_14_tranship_100 235
supply_14_tranship_121 80
supply_14_tranship_187 253
supply_15_tranship_123 677
supply_15_tranship_140 270
supply_16_tranship_110 530
supply_17_tranship_183 574
supply_18_tranship_150 390
supply_19_tranship_153 567
supply_20_tranship_166 157
supply_21_tranship_131 327
supply_22_tranship_131 330
supply_22_tranship_197 446
supply_23_tranship_131 456
supply_24_tranship_119 214
supply_24_tranship_144 395
supply_24_tranship_161 206
supply_25_tranship_119 660
supply_25_tranship_130 6
supply_26_tranship_151 330
supply_26_tranship_191 640
supply_27_tranship_131 395
supply_28_tranship_118 512
supply_29_tranship_151 146
supply_30_tranship_102 118
supply_31_tranship_131 352
supply_32_tranship_166 972
supply_33_tranship_131 971
supply_34_tranship_100 690
supply_34_tranship_166 218
supply_35_tranship_166 487
supply_36_tranship_166 940
supply_37_tranship_167 144
supply_38_tranship_150 529
supply_38_tranship_154 322
supply_38_tranship_161 53
supply_39_tranship_119 247
supply_40_tranship_115 508
supply_41_tranship_131 349
supply_42_tranship_166 303
supply_43_tranship_160 233
supply_44_tranship_141 523
supply_45_tranship_106 398
supply_45_tranship_134 365
supply_46_tranship_141 710
supply_46_tranship_183 8
supply_47_tranship_113 50
supply_47_tranship_131 587
supply_48_tranship_156 275
supply_49_tranship_160 31
supply_49_tranship_175 721
supply_50_tranship_156 411
supply_50_tranship_158 308
supply_51_tranship_141 698
supply_52_tranship_110 40
supply_52_tranship_172 523
supply_53_tranship_151 781
supply_54_tranship_141 205
supply_55_tranship_102 28
supply_55_tranship_153 409
supply_56_tranship_140 471
supply_57_tranship_162 174
supply_58_tranship_118 179
supply_58_tranship_121 94
supply_58_tranship_174 436
supply_59_tranship_119 362
supply_60_tranship_166 768
supply_61_tranship_106 295
supply_62_tranship_118 93
supply_62_tranship_140 29
supply_63_tranship_130 512
supply_64_tranship_180 416
supply_64_tranship_181 215
supply_64_tranship_182 258
supply_65_tranship_141 955
supply_66_tranship_158 275
supply_67_tranship_106 7
supply_67_tranship_111 650
supply_68_tranship_163 335
supply_68_tranship_167 425
supply_69_tranship_141 384
supply_70_tranship_131 138
supply_71_tranship_131 319
supply_72_tranship_166 560
supply_73_tranship_119 329
supply_74_tranship_166 627
supply_75_tranship_110 80
supply_75_tranship_134 556
supply_75_tranship_156 239
supply_76_tranship_131 930
supply_77_tranship_136 24
supply_77_tranship_141 611
supply_78_tranship_112 583
supply_78_tranship_162 205
supply_79_tranship_161 419
supply_80_tranship_119 570
supply_81_tranship_131 443
supply_82_tranship_147 181
supply_83_tranship_102 333
supply_84_tranship_131 548
supply_85_tranship_121 99
supply_85_tranship_141 409
supply_85_tranship_165 138
supply_86_tranship_112 186
supply_86_tranship_147 408
supply_87_tranship_104 285
supply_87_tranship_115 433
supply_87_tranship_150 15
supply_88_tranship_131 47
supply_88_tranship_141 257
supply_88_tranship_163 87
supply_89_tranship_160 205
supply_90_tranship_119 639
supply_91_tranship_119 807
supply_91_tranship_199 123
supply_92_tranship_166 194
supply_93_tranship_131 816
supply_94_tranship_174 494
supply_95_tranship_136 246
supply_96_tranship_119 414
supply_97_tranship_166 767
supply_98_tranship_197 381
supply_99_tranship_166 262
tranship_100_port_223 925
tranship_121_port_223 906
tranship_165_port_223 138
tranship_166_port_223 6875
tranship_187_port_223 253
tranship_156_port_271 716
tranship_104_port_278 908
tranship_110_port_278 650
tranship_112_port_278 913
tranship_118_port_278 784
tranship_119_port_278 6418
tranship_123_port_278 677
tranship_134_port_278 921
tranship_135_port_278 865
tranship_136_port_278 270
tranship_140_port_278 770
tranship_141_port_278 5682
tranship_144_port_278 395
tranship_147_port_278 589
tranship_150_port_278 934
tranship_151_port_278 1257
tranship_154_port_278 322
tranship_160_port_278 938
tranship_161_port_278 678
tranship_162_port_278 830
tranship_163_port_278 422
tranship_167_port_278 569
tranship_172_port_278 606
tranship_174_port_278 942
tranship_180_port_278 693
tranship_181_port_278 215
tranship_182_port_278 258
tranship_183_port_278 595
tranship_191_port_278 640
tranship_199_port_278 123
tranship_102_port_288 874
tranship_106_port_288 700
tranship_111_port_288 650
tranship_113_port_288 124
tranship_115_port_288 941
tranship_130_port_288 712
tranship_131_port_288 7008
tranship_153_port_288 976
tranship_156_port_288 209
tranship_158_port_288 964
tranship_175_port_288 721
tranship_197_port_288 827
X_223_300 5518
X_223_301 1024
X_223_338 1053
X_223_385 1502
X_271_398 716
X_278_300 22467
X_278_351 2809
X_278_358 2497
X_278_378 2091
X_288_300 12495
X_288_312 1863
X_288_395 348
